(set-logic QF_SLIA)
(declare-fun var0 () String)
(assert (not (str.in_re var0 (re.++ ((_ re.loop 17 713) (re.++ (re.union (str.to_re "!6L") (re.union (str.to_re "gn") (re.union (str.to_re "Q\u0022") (str.to_re "K-V")))) (re.++ (re.union (str.to_re "J2") (re.union (str.to_re "}") (re.union (str.to_re "(77") (str.to_re "Oy")))) (re.++ (re.union (str.to_re "6") (re.union (str.to_re "b)") (re.union (str.to_re "s7#") (str.to_re "ht")))) (re.union (str.to_re "3Y") (re.union (str.to_re "CwP") (re.union (str.to_re ")3") (str.to_re "_z")))))))) (re.++ ((_ re.loop 11 376) (re.++ (re.union (str.to_re "gJH") (re.union (str.to_re "_|n") (re.union (str.to_re "U]") (str.to_re "+|d")))) (re.++ (re.union (str.to_re "n5Y") (re.union (str.to_re "V>") (re.union (str.to_re "l") (str.to_re "M+#")))) (re.++ (re.union (str.to_re "G#") (re.union (str.to_re ">") (re.union (str.to_re "y&m") (str.to_re "r")))) (re.union (str.to_re "]C,") (re.union (str.to_re "H$6") (re.union (str.to_re "$=") (str.to_re "Sa")))))))) (re.++ ((_ re.loop 20 467) (re.++ (re.union (str.to_re "T`>") (re.union (str.to_re ".") (re.union (str.to_re "}L") (str.to_re "U?")))) (re.++ (re.union (str.to_re "W_;") (re.union (str.to_re ").") (re.union (str.to_re "Q3") (str.to_re "F=8")))) (re.++ (re.union (str.to_re "@{") (re.union (str.to_re "f") (re.union (str.to_re "n") (str.to_re "]")))) (re.union (str.to_re "B") (re.union (str.to_re "Nr") (re.union (str.to_re "NM") (str.to_re "/hJ")))))))) ((_ re.loop 15 837) (re.++ (re.union (str.to_re "D") (re.union (str.to_re "I") (re.union (str.to_re "R?3") (str.to_re "]Gx")))) (re.++ (re.union (str.to_re "[") (re.union (str.to_re "D/") (re.union (str.to_re "m|") (str.to_re "~")))) (re.++ (re.union (str.to_re "?dG") (re.union (str.to_re "p]R") (re.union (str.to_re "4|") (str.to_re "H<")))) (re.union (str.to_re "~'") (re.union (str.to_re "Fi") (re.union (str.to_re "0") (str.to_re "o"))))))))))))))
(assert (not (str.in_re var0 (re.++ ((_ re.loop 14 255) (re.++ (re.union (str.to_re "Ge") (re.union (str.to_re "i") (re.union (str.to_re ")[T") (str.to_re "<")))) (re.++ (re.union (str.to_re "'") (re.union (str.to_re "?k") (re.union (str.to_re "j") (str.to_re ".")))) (re.++ (re.union (str.to_re "K") (re.union (str.to_re "t6") (re.union (str.to_re "EAw") (str.to_re ",,8")))) (re.union (str.to_re "E2l") (re.union (str.to_re "}") (re.union (str.to_re "e") (str.to_re "K't")))))))) (re.++ ((_ re.loop 20 909) (re.++ (re.union (str.to_re "h") (re.union (str.to_re "O") (re.union (str.to_re ",]}") (str.to_re "W!\u0022")))) (re.++ (re.union (str.to_re "jWt") (re.union (str.to_re "(") (re.union (str.to_re "&-\\") (str.to_re "ye[")))) (re.++ (re.union (str.to_re "1") (re.union (str.to_re "5h") (re.union (str.to_re "Ez") (str.to_re "]")))) (re.union (str.to_re "N") (re.union (str.to_re "\u0022") (re.union (str.to_re "V") (str.to_re "qf")))))))) (re.++ ((_ re.loop 5 46) (re.++ (re.union (str.to_re "AC") (re.union (str.to_re "Lg") (re.union (str.to_re "zi") (str.to_re "LWb")))) (re.++ (re.union (str.to_re "Q*") (re.union (str.to_re "(") (re.union (str.to_re "X") (str.to_re "V1?")))) (re.++ (re.union (str.to_re "<") (re.union (str.to_re "]") (re.union (str.to_re "X,") (str.to_re ">U")))) (re.union (str.to_re "njO") (re.union (str.to_re ";a") (re.union (str.to_re "EzH") (str.to_re "Q")))))))) ((_ re.loop 9 455) (re.++ (re.union (str.to_re "nG<") (re.union (str.to_re "ad") (re.union (str.to_re ">") (str.to_re "s3m")))) (re.++ (re.union (str.to_re "`tM") (re.union (str.to_re "6") (re.union (str.to_re "&o") (str.to_re "vm")))) (re.++ (re.union (str.to_re "\\*") (re.union (str.to_re "0") (re.union (str.to_re "N\u0022") (str.to_re "(")))) (re.union (str.to_re "u") (re.union (str.to_re "oI") (re.union (str.to_re "!/") (str.to_re "57|"))))))))))))))
(assert (not (str.in_re var0 (re.++ (re.* re.allchar) (re.++ (re.union (str.to_re "<") (re.union (str.to_re ">") (re.union (str.to_re "'") (re.union (str.to_re "\u0022") (str.to_re "&"))))) (re.* re.allchar))))))
(assert (<= 50 (str.len var0)))
(check-sat)
(get-model)
